Version identifier: 12.10.0.0 | 2019-11-26 | 843d4de
CPXPARAM_WorkMem                                 16384
CPXPARAM_MIP_Limits_TreeMemory                   24576
Tried aggregator 2 times.
MIP Presolve modified 67 coefficients.
Aggregator did 30 substitutions.
Reduced MIP has 165 rows, 200 columns, and 775 nonzeros.
Reduced MIP has 200 binaries, 0 generals, 0 SOSs, and 0 indicators.
Presolve time = 0,00 sec. (1,05 ticks)
Found incumbent of value 525,000000 after 0,00 sec. (1,61 ticks)
Probing time = 0,00 sec. (0,29 ticks)
Tried aggregator 1 time.
Detecting symmetries...
MIP Presolve eliminated 40 rows and 0 columns.
MIP Presolve added 80 rows and 0 columns.
Reduced MIP has 205 rows, 200 columns, and 815 nonzeros.
Reduced MIP has 200 binaries, 0 generals, 0 SOSs, and 0 indicators.
Presolve time = 0,00 sec. (0,92 ticks)
Probing time = 0,00 sec. (0,28 ticks)
Clique table members: 535.
MIP emphasis: balance optimality and feasibility.
MIP search method: dynamic search.
Parallel mode: deterministic, using up to 16 threads.
Root relaxation solution time = 0,00 sec. (1,09 ticks)

        Nodes                                         Cuts/
   Node  Left     Objective  IInf  Best Integer    Best Bound    ItCnt     Gap

*     0+    0                          525,0000        0,0000           100,00%
*     0+    0                          229,0000        0,0000           100,00%
*     0+    0                          226,0000        0,0000           100,00%
      0     0      112,1979   114      226,0000      112,1979      136   50,35%
      0     0      116,2565   114      226,0000      Cuts: 87      178   48,56%
      0     0      118,8939   114      226,0000     Cuts: 109      235   47,39%
      0     0      119,5326   114      226,0000      Cuts: 81      267   47,11%
      0     0      120,9188   114      226,0000      Cuts: 77      312   46,50%
      0     0      121,6158   114      226,0000      Cuts: 74      349   46,19%
      0     0      122,5175   114      226,0000      Cuts: 69      393   45,79%
      0     0      123,0640   114      226,0000      Cuts: 66      446   45,55%
      0     0      123,3742   114      226,0000      Cuts: 58      480   45,41%
      0     0      123,6946   114      226,0000      Cuts: 57      530   45,27%
      0     0      123,8590   114      226,0000      Cuts: 45      570   45,20%
      0     0      124,1656   114      226,0000      Cuts: 46      616   45,06%
      0     0      124,5349   114      226,0000      Cuts: 48      666   44,90%
      0     0      124,8448   114      226,0000      Cuts: 38      699   44,76%
      0     0      125,4113   114      226,0000      Cuts: 71      747   44,51%
      0     0      125,7054   114      226,0000      Cuts: 80      798   44,38%
      0     0      125,9006   114      226,0000      Cuts: 46      850   44,29%
      0     0      126,1018   114      226,0000      Cuts: 39      890   44,20%
      0     0      126,2052   114      226,0000      Cuts: 44      924   44,16%
      0     0      126,4491   114      226,0000      Cuts: 52      974   44,05%
      0     0      126,5861   114      226,0000      Cuts: 42     1029   43,99%
*     0+    0                          203,0000      126,5861            37,64%
      0     0      126,7043   114      203,0000      Cuts: 43     1074   28,49%
      0     0      128,6845   114      203,0000      Cuts: 28     1194   28,49%
      0     0      130,1969   114      203,0000      Cuts: 87     1260   28,49%
      0     2      130,1969   118      203,0000      154,2500     1260   24,01%
Elapsed time = 0,27 sec. (134,44 ticks, tree = 0,02 MB, solutions = 4)

Clique cuts applied:  27
Cover cuts applied:  104
Flow cuts applied:  1
Mixed integer rounding cuts applied:  69
Zero-half cuts applied:  23
Lift and project cuts applied:  9
Gomory fractional cuts applied:  4

Root node processing (before b&c):
  Real time             =    0,27 sec. (134,21 ticks)
Parallel b&c, 16 threads:
  Real time             =    0,10 sec. (61,59 ticks)
  Sync time (average)   =    0,04 sec.
  Wait time (average)   =    0,00 sec.
                          ------------
Total (root+branch&cut) =    0,37 sec. (195,81 ticks)
